webassembly/ejemplos_dzn/12/folder12_json_77.dzn
TERM = { '.', 's(2)', 's(5)', 's(4)', 'in_1', 'local_0', 'local_1', 'in_2', 'in_4', 'in_3', 's(6)', 's(1)', 's(0)', 's(3)', 'in_0'};
null = '.';
s = 12;
n = 11;
ndeps = 6;
max_registers_sz = 5;
NR = 2;
registers = [|'local_0', 's(5)', |'local_1', 'in_1'|];
dependencies = [|'i32.load_0', 'i32.store16_3', |'i32.store16_3', 'i32.store8_5', |'i32.store8_5', 'call[function_index(0)]_6', |'call[function_index(0)]_6', 'i32.load8_s_8', |'i32.load_2', 'i32.store16_3', |'i32.load8_s_8', 'i32.store_11'|];
GET_ENUM = { GET1, GET2, GET3, GET4, GET5, GET6, GET7};
SET_ENUM = { SET1, SET2, SET3, SET4, SET5, SET6, SET7};
TEE_ENUM = { TEE1, TEE2, TEE3, TEE4, TEE5, TEE6, TEE7};
N = 8;
OP = { 'call[function_index(0)]_6', 'i32.load_0', 'i32.load_2', 'i32.store16_3', 'i32.store8_5', 'i32.load8_s_8', 'i32.sub_0', 'i32.store_11' };
in_ops = [1, 1, 1, 2, 2, 1, 2, 2 ];
out_ops = [3, 1, 1, 0, 0, 1, 1, 0 ];
in1 = ['in_4', 'in_0', 'local_1', 's(1)', 'in_2', 's(4)', 's(5)', 's(6)' ];
in2 = ['.', '.', '.', 's(0)', 'in_3', '.', 's(3)', 's(2)' ];
in3 = ['.', '.', '.', '.', '.', '.', '.', '.' ];
out1 = ['s(4)', 's(0)', 's(1)', '.', '.', 's(5)', 's(6)', '.' ];
out2 = ['s(3)', '.', '.', '.', '.', '.', '.', '.' ];
out3 = ['s(2)', '.', '.', '.', '.', '.', '.', '.' ];
comm = [false, false, false, false, false, false, false, false ];
gas = [1, 1, 1, 1, 1, 1, 1, 1 ];
sz = [1, 1, 1, 1, 1, 1, 1, 1 ];
stor = [true, false, false, true, true, false, false, true ];
lb = [ 1, 1, 1, 1, 1, 1, 1, 1 ];
ub = [ 12, 12, 12, 12, 12, 12, 12, 12 ];
startstack = [ 'in_0', 'in_1', 'in_2', 'in_3', 'in_4', null, null, null, null, null, null ];
endstack = [ null, null, null, null, null, null, null, null, null, null, null ];
