webassembly/ejemplos_results/12/folder12_json_77.txt
value = 12;
fgas = [1, 1, 1, 2, 1, 1, 1, 1, 1, 1, 1, 1];
fsize = [1, 1, 1, 1, 1, 1, 1, 1, 1, 1, 1, 1];
states = 
[|    in_0,   in_1,   in_2, in_3, in_4, '.', '.', '.', '.', '.', '.'
 |  's(0)',   in_1,   in_2, in_3, in_4, '.', '.', '.', '.', '.', '.'
 |    in_1,   in_2,   in_3, in_4,  '.', '.', '.', '.', '.', '.', '.'
 |    in_1,   in_2,   in_3, in_4,  '.', '.', '.', '.', '.', '.', '.'
 |    in_2,   in_3,   in_4,  '.',  '.', '.', '.', '.', '.', '.', '.'
 |    in_4,   in_0,    '.',  '.',  '.', '.', '.', '.', '.', '.', '.'
 |  's(4)', 's(3)', 's(2)', in_0,  '.', '.', '.', '.', '.', '.', '.'
 |  's(5)', 's(3)', 's(2)', in_0,  '.', '.', '.', '.', '.', '.', '.'
 |  's(6)', 's(2)',   in_0,  '.',  '.', '.', '.', '.', '.', '.', '.'
 | local_1, 's(0)',    '.',  '.',  '.', '.', '.', '.', '.', '.', '.'
 |  's(1)', 's(0)',    '.',  '.',  '.', '.', '.', '.', '.', '.', '.'
 |  's(5)',    '.',    '.',  '.',  '.', '.', '.', '.', '.', '.', '.'
 |     '.',    '.',    '.',  '.',  '.', '.', '.', '.', '.', '.', '.'
 |];
register_states = 
[| local_0, local_1, '.', '.', '.', '.', '.'
 | local_0, local_1, '.', '.', '.', '.', '.'
 |  's(0)', local_1, '.', '.', '.', '.', '.'
 |  's(0)',    in_1, '.', '.', '.', '.', '.'
 |  's(0)',    in_1, '.', '.', '.', '.', '.'
 |  's(0)',    in_1, '.', '.', '.', '.', '.'
 |  's(0)',    in_1, '.', '.', '.', '.', '.'
 |  's(0)',    in_1, '.', '.', '.', '.', '.'
 |  's(0)',    in_1, '.', '.', '.', '.', '.'
 |  's(0)',    in_1, '.', '.', '.', '.', '.'
 |  's(0)',    in_1, '.', '.', '.', '.', '.'
 |  's(0)',    in_1, '.', '.', '.', '.', '.'
 |  's(5)',    in_1, '.', '.', '.', '.', '.'
 |];
program = [O('i32.load_0'), S(SET1), TEE(TEE2), POP, O('i32.store8_5'), O('call[function_index(0)]_6'), O('i32.load8_s_8'), O('i32.sub_0'), O('i32.store_11'), O('i32.load_2'), O('i32.store16_3'), S(SET1)];
% time elapsed: 0.32 s
----------
value = 11;
fgas = [1, 2, 1, 1, 1, 1, 1, 1, 1, 1, 1, 0];
fsize = [1, 1, 1, 1, 1, 1, 1, 1, 1, 1, 1, 1];
states = 
[|    in_0,   in_1,   in_2, in_3, in_4, '.', '.', '.', '.', '.', '.'
 |  's(0)',   in_1,   in_2, in_3, in_4, '.', '.', '.', '.', '.', '.'
 |    in_1,   in_2,   in_3, in_4,  '.', '.', '.', '.', '.', '.', '.'
 |    in_2,   in_3,   in_4,  '.',  '.', '.', '.', '.', '.', '.', '.'
 |    in_4,   in_0,    '.',  '.',  '.', '.', '.', '.', '.', '.', '.'
 |  's(4)', 's(3)', 's(2)', in_0,  '.', '.', '.', '.', '.', '.', '.'
 |  's(5)', 's(3)', 's(2)', in_0,  '.', '.', '.', '.', '.', '.', '.'
 |  's(5)', 's(3)', 's(2)', in_0,  '.', '.', '.', '.', '.', '.', '.'
 |  's(6)', 's(2)',   in_0,  '.',  '.', '.', '.', '.', '.', '.', '.'
 | local_1, 's(0)',    '.',  '.',  '.', '.', '.', '.', '.', '.', '.'
 |  's(1)', 's(0)',    '.',  '.',  '.', '.', '.', '.', '.', '.', '.'
 |     '.',    '.',    '.',  '.',  '.', '.', '.', '.', '.', '.', '.'
 |     '.',    '.',    '.',  '.',  '.', '.', '.', '.', '.', '.', '.'
 |];
register_states = 
[| local_0, local_1, '.', '.', '.', '.', '.'
 | local_0, local_1, '.', '.', '.', '.', '.'
 | local_0, local_1, '.', '.', '.', '.', '.'
 | local_0,    in_1, '.', '.', '.', '.', '.'
 | local_0,    in_1, '.', '.', '.', '.', '.'
 | local_0,    in_1, '.', '.', '.', '.', '.'
 | local_0,    in_1, '.', '.', '.', '.', '.'
 |  's(5)',    in_1, '.', '.', '.', '.', '.'
 |  's(5)',    in_1, '.', '.', '.', '.', '.'
 |  's(5)',    in_1, '.', '.', '.', '.', '.'
 |  's(5)',    in_1, '.', '.', '.', '.', '.'
 |  's(5)',    in_1, '.', '.', '.', '.', '.'
 |  's(5)',    in_1, '.', '.', '.', '.', '.'
 |];
program = [O('i32.load_0'), POP, S(SET2), O('i32.store8_5'), O('call[function_index(0)]_6'), O('i32.load8_s_8'), TEE(TEE1), O('i32.sub_0'), O('i32.store_11'), O('i32.load_2'), O('i32.store16_3'), NOP];
% time elapsed: 0.35 s
----------
==========
% time elapsed: 0.35 s
% [value > 10]
